30 61 18 87 81 84 50 36 39 20 
99 59 53 27 
19 33 79 57 43 91 
21 42 7 16 51 56 90 6 
76 
98 14 46 69 80 68 100 97 
60 
31 63 83 58 15 96 54 32 35 25 
28 
92 71 85 70 8 77 
78 
67 22 
82 95 52 62 13 
2 41 73 75 45 3 26 
9 94 1 66 74 93 
47 5 12 40 37 89 4 24 48 
65 11 88 29 72 44 38 64 86 23 10 49 34 55 17 

